mapa = [|
         9,9,9,9,9,9,9,9,9,9,9|
         9,0,0,9,8,8,8,9,0,0,9|
         9,0,0,1,8,8,8,1,0,0,9|
         9,0,0,1,9,9,9,1,0,0,9|
         9,0,0,1,8,8,8,1,0,0,9|
         9,9,9,9,8,8,8,9,9,9,9|
         9,9,9,9,9,9,9,9,9,9,9|];
dimx = 7;
dimy = 11;
filav = 2;
colav = 6;
from = [1,2,3,4,5,6,7,8,9,10,12,13,14,15,16,17,18,19,20,21,23,24,25,26,27,28,29,30,31,32,34,35,36,37,38,39,40,41,42,43,45,46,47,48,49,50,51,52,53,54,56,57,58,59,60,61,62,63,64,65,1,2,3,4,5,6,7,8,9,10,12,13,14,15,16,17,18,19,20,21,23,24,25,26,27,28,29,30,31,32,34,35,36,37,38,39,40,41,42,43,45,46,47,48,49,50,51,52,53,54,56,57,58,59,60,61,62,63,64,65,11,22,33,44,55,66,67,68,69,70,71,72,73,74,75,76];
to = [2,3,4,5,6,7,8,9,10,11,13,14,15,16,17,18,19,20,21,22,24,25,26,27,28,29,30,31,32,33,35,36,37,38,39,40,41,42,43,44,46,47,48,49,50,51,52,53,54,55,57,58,59,60,61,62,63,64,65,66,12,13,14,15,16,17,18,19,20,21,23,24,25,26,27,28,29,30,31,32,34,35,36,37,38,39,40,41,42,43,45,46,47,48,49,50,51,52,53,54,56,57,58,59,60,61,62,63,64,65,67,68,69,70,71,72,73,74,75,76,22,33,44,55,66,77,68,69,70,71,72,73,74,75,76,77];
